(set-logic QF_LIA)
(set-info :ran/ran2.smt2)
(set-info :smt-lib-version 2.0)
(declare-fun x1 () Int)
(declare-fun x2 () Int)
(declare-fun x3 () Int)
(declare-fun x4 () Int)
(declare-fun x5 () Int)
(assert (<= (+ (* (- 3) x1) (* 3 x2) (* 2 x3) (* (- 1) x4) (* 9 x5) ) (- 1035)))
(assert (<= (+ (* (- 2) x1) (* (- 9) x2) (* (- 10) x3) (* (- 9) x4) (* (- 4) x5) ) 894))
(assert (<= (+ (* 10 x1) (* 6 x2) (* (- 9) x3) (* 0 x4) (* (- 3) x5) ) (- 2593)))
(assert (<= (+ (* (- 1) x1) (* 3 x2) (* (- 2) x3) (* 1 x4) (* (- 4) x5) ) (- 6842)))
(assert (<= (+ (* 3 x1) (* 3 x2) (* (- 5) x3) (* 1 x4) (* (- 5) x5) ) (- 4271)))
(assert (<= (+ (* 6 x1) (* 0 x2) (* 1 x3) (* (- 4) x4) (* 9 x5) ) (- 6133)))
(assert (<= (+ (* 3 x1) (* (- 6) x2) (* (- 2) x3) (* 1 x4) (* (- 5) x5) ) (- 3962)))
(assert (<= (+ (* (- 9) x1) (* (- 5) x2) (* (- 3) x3) (* (- 7) x4) (* 3 x5) ) 6036))
(assert (<= (+ (* (- 3) x1) (* (- 9) x2) (* (- 5) x3) (* 3 x4) (* 3 x5) ) 6839))
(assert (<= (+ (* 6 x1) (* (- 5) x2) (* (- 9) x3) (* (- 9) x4) (* 4 x5) ) (- 1170)))
(assert (<= (+ (* 1 x1) (* 0 x2) (* 0 x3) (* 0 x4) (* 0 x5) ) 7079))
(assert (<= (+ (* (- 1) x1) (* 0 x2) (* 0 x3) (* 0 x4) (* 0 x5) ) 7079))
(assert (<= (+ (* 0 x1) (* 1 x2) (* 0 x3) (* 0 x4) (* 0 x5) ) 7079))
(assert (<= (+ (* 0 x1) (* (- 1) x2) (* 0 x3) (* 0 x4) (* 0 x5) ) 7079))
(assert (<= (+ (* 0 x1) (* 0 x2) (* 1 x3) (* 0 x4) (* 0 x5) ) 7079))
(assert (<= (+ (* 0 x1) (* 0 x2) (* (- 1) x3) (* 0 x4) (* 0 x5) ) 7079))
(assert (<= (+ (* 0 x1) (* 0 x2) (* 0 x3) (* 1 x4) (* 0 x5) ) 7079))
(assert (<= (+ (* 0 x1) (* 0 x2) (* 0 x3) (* (- 1) x4) (* 0 x5) ) 7079))
(assert (<= (+ (* 0 x1) (* 0 x2) (* 0 x3) (* 0 x4) (* 1 x5) ) 7079))
(assert (<= (+ (* 0 x1) (* 0 x2) (* 0 x3) (* 0 x4) (* (- 1) x5) ) 7079))
